proyfinal/src/viki/013/experimentInOfficeAgust.take6.output/a057dc5c-e090-4907-99d1-31e67705962c.als.dat
{'cnf.clauses': '118081',
 'cnf.totvars': '69608',
 'conflict literals': '1820',
 'conflicts': '225',
 'decisions': '10679',
 'memused.mb': '16.32',
 'outcome': 'UNSAT',
 'propagations': '273151',
 'restarts': '3',
 'solver.msecs': 45,
 'task.msecs': 97}
