proyfinal/src/viki/013/experimentInOfficeAgust.take6.output/a057dc5c-e090-4907-99d1-31e67705962c.als.out
Reading from standard input... Use '--help' for help.
============================[ Problem Statistics ]=============================
|                                                                             |
|  Number of variables:         69608                                         |
|  Number of clauses:          118081                                         |
|  Parse time:                   0.02 s                                       |
|                                                                             |
============================[ Search Statistics ]==============================
| Conflicts |          ORIGINAL         |          LEARNT          | Progress |
|           |    Vars  Clauses Literals |    Limit  Clauses Lit/Cl |          |
===============================================================================
|       100 |   58120    85142   210743 |    31218       95      6 | 16.504 % |
===============================================================================
restarts              : 3
conflicts             : 225            (4985 /sec)
decisions             : 10679          (0.00 % random) (236622 /sec)
propagations          : 273151         (6052403 /sec)
conflict literals     : 1820           (22.22 % deleted)
Memory used           : 16.32 MB
CPU time              : 0.045131 s

UNSATISFIABLE
